Route #1: 78 82 10 79 60 38 77
Route #2: 36 56 31 9 27 19 74 18 24 47 57 59
Route #3: 95 89 88 43 84
Route #4: 20
Route #5: 54 41 81 66 86 63 22 49 29 90 39
Route #6: 32 85
Route #7: 6 17 33 11 52 44 72 16 80 62
Route #8: 61 96 40 1 26 58 30 94 76
Route #9: 99
Route #10: 50 2
Route #11: 5 48 53
Route #12: 28 91
Route #13: 8 68 13 83 14 100 42 21 75 51
Route #14: 97 92 35 98 87 45 25
Route #15: 65 3
Route #16: 34 64
Route #17: 67 69 7 55 23 46 70 4 73 12
Route #18: 15 71
Route #19: 37
Route #20: 93
Cost 33926
